c File: instances/30_0.15_2.col
c
c Description: Random graph of size 30 vertices and P(0.15000000000000002) of edges between any two vertices.
p col 30 435
e 1 17
e 1 20
e 1 23
e 2 7
e 2 15
e 2 16
e 2 22
e 3 4
e 3 11
e 3 13
e 3 17
e 3 29
e 4 17
e 4 22
e 4 25
e 4 27
e 5 15
e 5 16
e 5 21
e 6 11
e 6 26
e 7 9
e 7 16
e 7 20
e 7 23
e 8 18
e 8 19
e 9 10
e 10 12
e 10 15
e 11 17
e 11 25
e 12 17
e 12 20
e 12 28
e 14 20
e 14 28
e 15 25
e 15 28
e 15 29
e 16 17
e 16 25
e 17 30
e 18 19
e 18 20
e 18 26
e 18 29
e 19 25
e 21 26
e 21 29
e 21 30
e 22 29
e 23 24
e 23 26
e 23 29
e 25 29
e 25 30
e 27 28